N = 6;
H = 5;
T = 2;

avail = array3d(1..N, 1..H, 1..T, [9, 4, 8, 6, 4, 7, 8, 9, 6, 4, 8, 4, 10, 9, 2, 6, 7, 7, 9, 1, 3, 0, 2, 5, 6, 2, 6, 1, 6, 3, 4, 8, 6, 2, 2, 7, 9, 1, 5, 10, 0, 2, 7, 6, 2, 1, 4, 6, 5, 2, 10, 1, 8, 8, 1, 10, 6, 10, 2, 8]);

r = array2d(1..H, 1..T, [1, 2, 1, 1, 2, 2, 1, 0, 1, 1]);
